
  22    0


   0  14 2 3 4 5 6 7 9 10 11 17 18 19 20 21 
   2   3 14 13 12 
   6   2 14 8 
   7   2 14 8 
   8   2 16 13 
   5   2 13 12 
   8   2 13 12 
   4   1 12 
   7   1 15 
  10   1 13 
   1   1 12 
   8   1 22
   5   1 22
   5   1 22
   6   1 22
  10   1 22
   1   1 22
   3   1 22
   4   1 22
   7   1 22
   7   1 22
   0   0 
